9 9 4 2 8 3 10 -1 2 -1 
9 7 -1 8 9 0 8 0 4 -1 
4 0 10 1 9 6 10 9 2 -1 
3 3 5 9 3 -1 6 0 0 -1 
2 2 -1 5 2 6 -1 0 -1 -1 
4 9 0 3 -1 7 10 2 4 -1 
10 8 9 4 3 0 4 -1 7 -1 
4 2 2 8 5 0 0 -1 0 -1 
1 3 -1 5 7 0 9 9 0 -1 
5 8 1 8 3 1 0 10 2 -1 
